decision_x1=[0,2];
decision_x2=[0,2];
decision_x3=[0,2];
decision_x4=[0,2];
decision_x5=[0,2];
decision_x6=[0,2];
random_y1=[0,2];
random_y2=[0,2];
constraint_x3_x1=[
0,0,5.2|
0,1,9.7|
0,2,6.1|
1,0,2.4|
1,1,0.14|
1,2,1.3|
2,0,9.9|
2,1,9.9|
2,2,4.5|
];
constraint_x4_x1=[
0,0,0.11|
0,1,4.2|
0,2,9.7|
1,0,9.8|
1,1,3.5|
1,2,3.4|
2,0,0.33|
2,1,5.4|
2,2,4.7|
];
constraint_x5_x2=[
0,0,5.7|
0,1,6.4|
0,2,5.3|
1,0,0.91|
1,1,6.6|
1,2,0.014|
2,0,9.1|
2,1,6.6|
2,2,7.2|
];
constraint_x6_x1=[
0,0,2.5|
0,1,6.1|
0,2,3.5|
1,0,3.4|
1,1,8|
1,2,5|
2,0,8.5|
2,1,0.016|
2,2,0.0066|
];
constraint_x6_x2=[
0,0,3.1|
0,1,2.9|
0,2,7.9|
1,0,5.7|
1,1,2.8|
1,2,9.6|
2,0,8.2|
2,1,7|
2,2,6.7|
];
constraint_x6_x3=[
0,0,9.7|
0,1,7.9|
0,2,7.3|
1,0,0.78|
1,1,8.6|
1,2,1.1|
2,0,0.4|
2,1,3|
2,2,8|
];
constraint_x6_x4=[
0,0,5.5|
0,1,0.0031|
0,2,9.3|
1,0,8.5|
1,1,6.9|
1,2,5.4|
2,0,5.6|
2,1,8.2|
2,2,7.8|
];
constraint_x6_x5=[
0,0,6.1|
0,1,5.1|
0,2,7.6|
1,0,5.4|
1,1,7.4|
1,2,9.8|
2,0,4.9|
2,1,5.7|
2,2,5.2|
];
constraint_x1_y1=[
0,0,6.9|
0,1,4.7|
0,2,2.7|
1,0,4.2|
1,1,1.1|
1,2,4|
2,0,0.74|
2,1,0.098|
2,2,4.4|
];
constraint_x2_y2=[
0,0,2.8|
0,1,6.7|
0,2,8.5|
1,0,7.7|
1,1,3.3|
1,2,4.3|
2,0,0.43|
2,1,5.1|
2,2,2.3|
];
initial_distribution_y1=[0.22,0.62,0.17];
initial_distribution_y2=[0.23,0.49,0.27];
transition_y1=[
0.17,0.67,0.16|
0.38,0.27,0.35|
0.25,0.17,0.58|
];
transition_y2=[
0.15,0.04,0.81|
0.36,0.34,0.29|
0.45,0.32,0.23|
];
